# Objective value = 453300
number-model-1-in-house 3000
number-model-2-in-house 550
number-model-3-in-house 900
number-model-1-by-from-competitor 0
number-model-2-by-from-competitor 1450
number-model-3-by-from-competitor 0
